p wcnf 173 260 261 
1 28 -79 0 
1 21 20 0 
1 -92 82 0 
1 -166 -85 0 
1 -23 133 0 
1 78 86 0 
1 109 84 0 
1 -80 55 0 
1 44 27 0 
1 -70 -171 0 
1 37 24 0 
1 134 147 0 
1 -163 -16 0 
1 -115 -166 0 
1 32 -141 0 
1 20 70 0 
1 -157 102 0 
1 123 166 0 
1 -30 51 0 
1 -42 147 0 
1 -14 -9 0 
1 90 -35 0 
1 -141 112 0 
1 55 -128 0 
1 -39 -152 0 
1 43 145 0 
1 -171 -130 0 
1 -163 115 0 
1 -50 -155 0 
1 138 -13 0 
1 92 61 0 
1 -13 -23 0 
1 6 143 0 
1 86 1 0 
1 -79 -39 0 
1 84 147 0 
1 150 93 0 
1 95 82 0 
1 34 -67 0 
1 -59 13 0 
1 103 155 0 
1 -7 -68 0 
1 24 -82 0 
1 55 46 0 
1 125 164 0 
1 -122 115 0 
1 -139 141 0 
1 -11 -99 0 
1 -56 115 0 
1 79 69 0 
1 48 87 0 
1 84 -141 0 
1 106 82 0 
1 61 -85 0 
1 117 172 0 
1 -32 -68 0 
1 129 15 0 
1 -114 7 0 
1 -92 -95 0 
1 -52 86 0 
1 142 -138 0 
1 42 81 0 
1 64 32 0 
1 114 133 0 
1 116 162 0 
1 -133 40 0 
1 14 -15 0 
1 128 75 0 
1 -5 -65 0 
1 38 -112 0 
1 6 -152 0 
1 -124 -71 0 
1 7 -99 0 
1 -43 146 0 
1 141 -94 0 
1 -42 -171 0 
1 -126 162 0 
1 41 -104 0 
1 78 -148 0 
1 37 139 0 
1 57 169 0 
1 129 -40 0 
1 -90 -4 0 
1 -25 132 0 
1 23 65 0 
1 156 -21 0 
1 143 -72 0 
1 29 97 0 
1 -28 56 0 
1 -120 125 0 
1 -90 -60 0 
1 -112 -155 0 
1 -59 72 0 
1 -133 168 0 
1 -162 71 0 
1 139 -6 0 
1 168 157 0 
1 -25 159 0 
1 162 173 0 
1 -26 151 0 
1 -28 164 0 
1 -32 -35 0 
1 155 103 0 
1 -106 134 0 
1 11 118 0 
1 -38 52 0 
1 -77 -2 0 
1 17 -36 0 
1 -93 25 0 
1 166 20 0 
1 -97 77 0 
1 98 -162 0 
1 98 -20 0 
1 -30 -87 0 
1 -114 58 0 
1 93 3 0 
1 55 76 0 
1 157 80 0 
1 153 -9 0 
1 35 72 0 
1 -121 162 0 
1 35 121 0 
1 -51 144 0 
1 23 -170 0 
1 -160 -120 0 
1 19 102 0 
1 -53 -171 0 
1 -86 29 0 
1 91 -76 0 
1 3 70 0 
1 -119 164 0 
1 103 -23 0 
1 -141 125 0 
1 112 120 0 
1 100 -151 0 
1 172 -128 0 
1 91 51 0 
1 -54 13 0 
1 142 -93 0 
1 -39 -76 0 
1 76 -92 0 
1 -169 120 0 
1 22 -143 0 
1 135 71 0 
1 -106 -83 0 
1 -77 -137 0 
1 62 93 0 
1 171 -149 0 
1 -50 -88 0 
1 -119 113 0 
1 86 -154 0 
1 -160 -52 0 
1 -114 -75 0 
1 100 93 0 
1 163 -83 0 
1 60 107 0 
1 105 131 0 
1 162 91 0 
1 -68 -100 0 
1 37 -166 0 
1 147 -76 0 
1 -157 -120 0 
1 -35 120 0 
1 -35 76 0 
1 89 -88 0 
1 -72 -48 0 
1 117 -24 0 
1 -102 146 0 
1 -51 -14 0 
1 -171 124 0 
1 -122 148 0 
1 -147 150 0 
1 159 151 0 
1 30 -103 0 
1 -152 -169 0 
1 91 -147 0 
1 -42 16 0 
1 39 170 0 
1 -160 147 0 
1 -35 -27 0 
1 105 24 0 
1 89 -147 0 
1 32 -128 0 
1 120 161 0 
1 -160 29 0 
1 148 146 0 
1 -94 47 0 
1 -57 115 0 
1 -60 116 0 
1 56 134 0 
1 82 -1 0 
1 121 58 0 
1 130 151 0 
1 -127 -59 0 
1 -111 144 0 
1 81 -38 0 
1 77 -172 0 
1 141 -56 0 
1 83 -87 0 
1 112 -146 0 
1 167 -134 0 
1 123 -75 0 
1 -24 37 0 
1 -42 118 0 
1 -93 69 0 
1 -163 165 0 
1 26 -127 0 
1 -173 59 0 
1 -95 60 0 
1 -89 -28 0 
1 146 -32 0 
1 165 -68 0 
1 73 -121 0 
1 -90 -89 0 
1 -75 -66 0 
1 -83 73 0 
1 -17 -16 0 
1 67 94 0 
1 -86 97 0 
1 35 58 0 
1 -169 149 0 
1 -46 45 0 
1 112 75 0 
1 -141 -136 0 
1 -79 -61 0 
1 -157 152 0 
1 57 -170 0 
1 110 -18 0 
1 43 147 0 
1 -169 -8 0 
1 -140 80 0 
1 -104 132 0 
1 152 -99 0 
1 -92 -47 0 
1 56 -51 0 
1 23 72 0 
1 3 -8 0 
1 164 -4 0 
1 2 97 0 
1 -126 -17 0 
1 85 -110 0 
1 109 128 0 
1 -172 -67 0 
1 -23 -30 0 
1 72 70 0 
1 134 -129 0 
1 139 43 0 
1 75 -130 0 
1 -76 143 0 
1 -8 -110 0 
1 29 -55 0 
1 -120 -104 0 
1 172 -62 0 
1 135 -155 0 
1 75 12 0 
1 62 87 0 
1 -142 -145 0 
1 144 22 0 
1 -40 -112 0 
1 21 -104 0 
